(declare-sort sk 0)
(declare-sort fun1 0)
(declare-sort fun12 0)
(declare-sort fun13 0)
(declare-sort fun14 0)
(declare-sort fun15 0)
(declare-sort sk2 0)
(declare-datatype
  pair3 ((pair22 (proj1-pair2 sk) (proj2-pair2 sk))))
(declare-datatype list ((nil3) (cons3 (head3 sk) (tail3 list))))
(declare-datatype
  list3 ((nil2) (cons2 (head2 list) (tail2 list3))))
(declare-datatype pair ((pair2 (proj1-pair sk) (proj2-pair list))))
(declare-datatype list2 ((nil) (cons (head pair) (tail list2))))
(declare-fun select2 (sk list2) list2)
(declare-fun select22 (list) list2)
(declare-fun formula (list2) list3)
(declare-fun count (sk list) Int)
(declare-fun all (fun13 list) Bool)
(declare-fun apply1 (fun1 sk) sk)
(declare-fun apply12 (fun12 sk) sk2)
(declare-fun apply13 (fun13 sk) Bool)
(declare-fun apply14 (fun14 sk2) sk)
(declare-fun apply15 (fun15 sk2) sk2)
(assert (= (select22 nil3) nil))
(assert (= (formula nil) nil2))
(assert (forall ((x sk)) (= (select2 x nil) nil)))
(assert
  (forall ((x sk) (x2 list2) (y2 sk) (ys list))
    (= (select2 x (cons (pair2 y2 ys) x2))
      (cons (pair2 y2 (cons3 x ys)) (select2 x x2)))))
(assert
  (forall ((y sk) (xs list))
    (= (select22 (cons3 y xs))
      (cons (pair2 y xs) (select2 y (select22 xs))))))
(assert
  (forall ((z list2) (y2 sk) (ys list))
    (= (formula (cons (pair2 y2 ys) z))
      (cons2 (cons3 y2 ys) (formula z)))))
(assert (forall ((x sk)) (= (count x nil3) 0)))
(assert
  (forall ((x sk) (z sk) (ys list))
    (=> (= x z) (= (count x (cons3 z ys)) (+ 1 (count x ys))))))
(assert
  (forall ((x sk) (z sk) (ys list))
    (=> (distinct x z) (= (count x (cons3 z ys)) (count x ys)))))
(assert (forall ((p fun13)) (all p nil3)))
(assert
  (forall ((p fun13) (y sk) (xs list))
    (= (all p (cons3 y xs)) (and (apply13 p y) (all p xs)))))
